<instance format="XCSP3" type="CSP">
  <variables>
    <array id="x" size="[72]"> 0 1 </array>
  </variables>
  <constraints>
    <group>
      <extension>
        <list> %... </list>
        <conflicts> (0,0,0,0,0,0,0,0) </conflicts>
      </extension>
      <args> x[7] x[6] x[5] x[4] x[3] x[2] x[1] x[0] </args>
      <args> x[15] x[14] x[13] x[12] x[11] x[10] x[9] x[8] </args>
      <args> x[23] x[22] x[21] x[20] x[19] x[18] x[17] x[16] </args>
      <args> x[31] x[30] x[29] x[28] x[27] x[26] x[25] x[24] </args>
      <args> x[39] x[38] x[37] x[36] x[35] x[34] x[33] x[32] </args>
      <args> x[47] x[46] x[45] x[44] x[43] x[42] x[41] x[40] </args>
      <args> x[55] x[54] x[53] x[52] x[51] x[50] x[49] x[48] </args>
      <args> x[63] x[62] x[61] x[60] x[59] x[58] x[57] x[56] </args>
      <args> x[71] x[70] x[69] x[68] x[67] x[66] x[65] x[64] </args>
    </group>
    <group>
      <extension>
        <list> %0 %1 </list>
        <conflicts> (1,1) </conflicts>
      </extension>
      <args> x[0] x[8] </args>
      <args> x[0] x[16] </args>
      <args> x[0] x[24] </args>
      <args> x[0] x[32] </args>
      <args> x[0] x[40] </args>
      <args> x[0] x[48] </args>
      <args> x[0] x[56] </args>
      <args> x[0] x[64] </args>
      <args> x[8] x[16] </args>
      <args> x[8] x[24] </args>
      <args> x[8] x[32] </args>
      <args> x[8] x[40] </args>
      <args> x[8] x[48] </args>
      <args> x[8] x[56] </args>
      <args> x[8] x[64] </args>
      <args> x[16] x[24] </args>
      <args> x[16] x[32] </args>
      <args> x[16] x[40] </args>
      <args> x[16] x[48] </args>
      <args> x[16] x[56] </args>
      <args> x[16] x[64] </args>
      <args> x[24] x[32] </args>
      <args> x[24] x[40] </args>
      <args> x[24] x[48] </args>
      <args> x[24] x[56] </args>
      <args> x[24] x[64] </args>
      <args> x[32] x[40] </args>
      <args> x[32] x[48] </args>
      <args> x[32] x[56] </args>
      <args> x[32] x[64] </args>
      <args> x[40] x[48] </args>
      <args> x[40] x[56] </args>
      <args> x[40] x[64] </args>
      <args> x[48] x[56] </args>
      <args> x[48] x[64] </args>
      <args> x[56] x[64] </args>
      <args> x[1] x[9] </args>
      <args> x[1] x[17] </args>
      <args> x[1] x[25] </args>
      <args> x[1] x[33] </args>
      <args> x[1] x[41] </args>
      <args> x[1] x[49] </args>
      <args> x[1] x[57] </args>
      <args> x[1] x[65] </args>
      <args> x[9] x[17] </args>
      <args> x[9] x[25] </args>
      <args> x[9] x[33] </args>
      <args> x[9] x[41] </args>
      <args> x[9] x[49] </args>
      <args> x[9] x[57] </args>
      <args> x[9] x[65] </args>
      <args> x[17] x[25] </args>
      <args> x[17] x[33] </args>
      <args> x[17] x[41] </args>
      <args> x[17] x[49] </args>
      <args> x[17] x[57] </args>
      <args> x[17] x[65] </args>
      <args> x[25] x[33] </args>
      <args> x[25] x[41] </args>
      <args> x[25] x[49] </args>
      <args> x[25] x[57] </args>
      <args> x[25] x[65] </args>
      <args> x[33] x[41] </args>
      <args> x[33] x[49] </args>
      <args> x[33] x[57] </args>
      <args> x[33] x[65] </args>
      <args> x[41] x[49] </args>
      <args> x[41] x[57] </args>
      <args> x[41] x[65] </args>
      <args> x[49] x[57] </args>
      <args> x[49] x[65] </args>
      <args> x[57] x[65] </args>
      <args> x[2] x[10] </args>
      <args> x[2] x[18] </args>
      <args> x[2] x[26] </args>
      <args> x[2] x[34] </args>
      <args> x[2] x[42] </args>
      <args> x[2] x[50] </args>
      <args> x[2] x[58] </args>
      <args> x[2] x[66] </args>
      <args> x[10] x[18] </args>
      <args> x[10] x[26] </args>
      <args> x[10] x[34] </args>
      <args> x[10] x[42] </args>
      <args> x[10] x[50] </args>
      <args> x[10] x[58] </args>
      <args> x[10] x[66] </args>
      <args> x[18] x[26] </args>
      <args> x[18] x[34] </args>
      <args> x[18] x[42] </args>
      <args> x[18] x[50] </args>
      <args> x[18] x[58] </args>
      <args> x[18] x[66] </args>
      <args> x[26] x[34] </args>
      <args> x[26] x[42] </args>
      <args> x[26] x[50] </args>
      <args> x[26] x[58] </args>
      <args> x[26] x[66] </args>
      <args> x[34] x[42] </args>
      <args> x[34] x[50] </args>
      <args> x[34] x[58] </args>
      <args> x[34] x[66] </args>
      <args> x[42] x[50] </args>
      <args> x[42] x[58] </args>
      <args> x[42] x[66] </args>
      <args> x[50] x[58] </args>
      <args> x[50] x[66] </args>
      <args> x[58] x[66] </args>
      <args> x[3] x[11] </args>
      <args> x[3] x[19] </args>
      <args> x[3] x[27] </args>
      <args> x[3] x[35] </args>
      <args> x[3] x[43] </args>
      <args> x[3] x[51] </args>
      <args> x[3] x[59] </args>
      <args> x[3] x[67] </args>
      <args> x[11] x[19] </args>
      <args> x[11] x[27] </args>
      <args> x[11] x[35] </args>
      <args> x[11] x[43] </args>
      <args> x[11] x[51] </args>
      <args> x[11] x[59] </args>
      <args> x[11] x[67] </args>
      <args> x[19] x[27] </args>
      <args> x[19] x[35] </args>
      <args> x[19] x[43] </args>
      <args> x[19] x[51] </args>
      <args> x[19] x[59] </args>
      <args> x[19] x[67] </args>
      <args> x[27] x[35] </args>
      <args> x[27] x[43] </args>
      <args> x[27] x[51] </args>
      <args> x[27] x[59] </args>
      <args> x[27] x[67] </args>
      <args> x[35] x[43] </args>
      <args> x[35] x[51] </args>
      <args> x[35] x[59] </args>
      <args> x[35] x[67] </args>
      <args> x[43] x[51] </args>
      <args> x[43] x[59] </args>
      <args> x[43] x[67] </args>
      <args> x[51] x[59] </args>
      <args> x[51] x[67] </args>
      <args> x[59] x[67] </args>
      <args> x[4] x[12] </args>
      <args> x[4] x[20] </args>
      <args> x[4] x[28] </args>
      <args> x[4] x[36] </args>
      <args> x[4] x[44] </args>
      <args> x[4] x[52] </args>
      <args> x[4] x[60] </args>
      <args> x[4] x[68] </args>
      <args> x[12] x[20] </args>
      <args> x[12] x[28] </args>
      <args> x[12] x[36] </args>
      <args> x[12] x[44] </args>
      <args> x[12] x[52] </args>
      <args> x[12] x[60] </args>
      <args> x[12] x[68] </args>
      <args> x[20] x[28] </args>
      <args> x[20] x[36] </args>
      <args> x[20] x[44] </args>
      <args> x[20] x[52] </args>
      <args> x[20] x[60] </args>
      <args> x[20] x[68] </args>
      <args> x[28] x[36] </args>
      <args> x[28] x[44] </args>
      <args> x[28] x[52] </args>
      <args> x[28] x[60] </args>
      <args> x[28] x[68] </args>
      <args> x[36] x[44] </args>
      <args> x[36] x[52] </args>
      <args> x[36] x[60] </args>
      <args> x[36] x[68] </args>
      <args> x[44] x[52] </args>
      <args> x[44] x[60] </args>
      <args> x[44] x[68] </args>
      <args> x[52] x[60] </args>
      <args> x[52] x[68] </args>
      <args> x[60] x[68] </args>
      <args> x[5] x[13] </args>
      <args> x[5] x[21] </args>
      <args> x[5] x[29] </args>
      <args> x[5] x[37] </args>
      <args> x[5] x[45] </args>
      <args> x[5] x[53] </args>
      <args> x[5] x[61] </args>
      <args> x[5] x[69] </args>
      <args> x[13] x[21] </args>
      <args> x[13] x[29] </args>
      <args> x[13] x[37] </args>
      <args> x[13] x[45] </args>
      <args> x[13] x[53] </args>
      <args> x[13] x[61] </args>
      <args> x[13] x[69] </args>
      <args> x[21] x[29] </args>
      <args> x[21] x[37] </args>
      <args> x[21] x[45] </args>
      <args> x[21] x[53] </args>
      <args> x[21] x[61] </args>
      <args> x[21] x[69] </args>
      <args> x[29] x[37] </args>
      <args> x[29] x[45] </args>
      <args> x[29] x[53] </args>
      <args> x[29] x[61] </args>
      <args> x[29] x[69] </args>
      <args> x[37] x[45] </args>
      <args> x[37] x[53] </args>
      <args> x[37] x[61] </args>
      <args> x[37] x[69] </args>
      <args> x[45] x[53] </args>
      <args> x[45] x[61] </args>
      <args> x[45] x[69] </args>
      <args> x[53] x[61] </args>
      <args> x[53] x[69] </args>
      <args> x[61] x[69] </args>
      <args> x[6] x[14] </args>
      <args> x[6] x[22] </args>
      <args> x[6] x[30] </args>
      <args> x[6] x[38] </args>
      <args> x[6] x[46] </args>
      <args> x[6] x[54] </args>
      <args> x[6] x[62] </args>
      <args> x[6] x[70] </args>
      <args> x[14] x[22] </args>
      <args> x[14] x[30] </args>
      <args> x[14] x[38] </args>
      <args> x[14] x[46] </args>
      <args> x[14] x[54] </args>
      <args> x[14] x[62] </args>
      <args> x[14] x[70] </args>
      <args> x[22] x[30] </args>
      <args> x[22] x[38] </args>
      <args> x[22] x[46] </args>
      <args> x[22] x[54] </args>
      <args> x[22] x[62] </args>
      <args> x[22] x[70] </args>
      <args> x[30] x[38] </args>
      <args> x[30] x[46] </args>
      <args> x[30] x[54] </args>
      <args> x[30] x[62] </args>
      <args> x[30] x[70] </args>
      <args> x[38] x[46] </args>
      <args> x[38] x[54] </args>
      <args> x[38] x[62] </args>
      <args> x[38] x[70] </args>
      <args> x[46] x[54] </args>
      <args> x[46] x[62] </args>
      <args> x[46] x[70] </args>
      <args> x[54] x[62] </args>
      <args> x[54] x[70] </args>
      <args> x[62] x[70] </args>
      <args> x[7] x[15] </args>
      <args> x[7] x[23] </args>
      <args> x[7] x[31] </args>
      <args> x[7] x[39] </args>
      <args> x[7] x[47] </args>
      <args> x[7] x[55] </args>
      <args> x[7] x[63] </args>
      <args> x[7] x[71] </args>
      <args> x[15] x[23] </args>
      <args> x[15] x[31] </args>
      <args> x[15] x[39] </args>
      <args> x[15] x[47] </args>
      <args> x[15] x[55] </args>
      <args> x[15] x[63] </args>
      <args> x[15] x[71] </args>
      <args> x[23] x[31] </args>
      <args> x[23] x[39] </args>
      <args> x[23] x[47] </args>
      <args> x[23] x[55] </args>
      <args> x[23] x[63] </args>
      <args> x[23] x[71] </args>
      <args> x[31] x[39] </args>
      <args> x[31] x[47] </args>
      <args> x[31] x[55] </args>
      <args> x[31] x[63] </args>
      <args> x[31] x[71] </args>
      <args> x[39] x[47] </args>
      <args> x[39] x[55] </args>
      <args> x[39] x[63] </args>
      <args> x[39] x[71] </args>
      <args> x[47] x[55] </args>
      <args> x[47] x[63] </args>
      <args> x[47] x[71] </args>
      <args> x[55] x[63] </args>
      <args> x[55] x[71] </args>
      <args> x[63] x[71] </args>
    </group>
  </constraints>
</instance>
